NAME : XML100_2252_14
DIMENSION : 101
NB_CLUSTERS : 3
CLUSTERING_ALG : DBSCAN
CLUSTERING_PARAMS : eps(94), minSamples(3)
CLUSTERS
1 0
2 1 2 6 7 9 11 12 13 14 15 16 17 18 19 20 21 23 24 25 27 28 29 31 32 36 38 39 40 41 43 46 47 48 49 50 51 52 53 54 55 57 58 61 63 66 67 69 70 72 75 76 78 80 81 82 85 87 90 93 96 97 98
3 3 4 5 8 10 22 26 30 33 34 35 37 42 44 45 56 59 60 62 64 65 68 71 73 74 77 79 83 84 86 88 89 91 92 94 95 99 100
EOF